(declare-const X String)
; Host\x3a[^\n\r]*pgwtjgxwthx\x2fbyb\.xky[^\n\r]*source%3Dultrasearch136%26campaign%3Dsnap
(assert (not (str.in_re X (re.++ (str.to_re "Host:") (re.* (re.union (str.to_re "\u{a}") (str.to_re "\u{d}"))) (str.to_re "pgwtjgxwthx/byb.xky") (re.* (re.union (str.to_re "\u{a}") (str.to_re "\u{d}"))) (str.to_re "source%3Dultrasearch136%26campaign%3Dsnap\u{a}")))))
(check-sat)

(exit)
